Please solve the following SAT Problem encoded in DIMACS format, only return a single solution assignment without explanations, if there is any: 
p cnf 10 45
-10 9 8 0
6 -5 -9 0
-10 -8 -1 0
-9 4 8 0
9 -6 -2 0
-2 -5 -7 0
9 10 4 0
-5 10 -2 0
9 -4 2 0
-5 6 -1 0
9 -2 6 0
9 6 -5 0
10 4 6 0
-3 10 -5 0
-9 8 -1 0
-7 4 -3 0
-3 -5 -7 0
-10 -1 -8 0
-7 9 -10 0
4 -2 -7 0
-7 -10 -2 0
9 8 -7 0
-3 -2 -7 0
-5 -1 10 0
-5 4 -10 0
-10 8 6 0
8 4 -7 0
-1 6 4 0
9 8 5 0
4 2 -5 0
-7 -2 9 0
-3 6 -10 0
-8 -6 9 0
-1 4 9 0
-10 -7 -1 0
-2 -3 -5 0
-10 -3 9 0
8 -1 -3 0
6 -5 9 0
-3 -2 -7 0
-3 -9 -2 0
4 -1 6 0
-2 6 -10 0
8 -6 -2 0
-3 8 -9 0

